1978
1   1   0    39   0 12 20 9 33 25 17 1 0
1   2   0    54   0 8 16 29 21 19 27 35 34 18 11 13 0
1   3   0    32   0 6 14 4 0
1   4   0    0    0 0
1   5   0    36   0 5 2 7 0
2   1   0    51   0 42 43 48 80 72 64 53 0
2   2   0    50   0 47 41 49 52 70 78 79 71 63 0
2   3   0    56   0 46 54 62 55 56 61 45 0
2   4   0    55   0 50 58 74 24 32 40 75 67 31 15 23 39 66 59 77 69 51 0
2   5   0    59   0 57 38 28 36 26 10 3 37 22 30 73 65 76 68 60 44 0